32      5       
22      15      15      19      19      
0       0       0       0       0       0       3       2       3       4       
4       0       0       7       0       1       2       5       20      
7       0       0       4       0       3       3       10      11      21      
3       8       7       5       1       2       3       6       7       19      
5       5       9       0       0       0       2       8       9       
7       6       3       9       3       0       3       12      15      16      
1       0       5       0       10      3       1       27      
6       0       1       3       0       0       1       23      
1       0       1       0       7       9       3       14      17      18      
7       10      0       0       5       3       1       22      
3       6       0       6       1       0       1       23      
7       0       0       0       4       2       3       13      22      29      
2       9       0       0       0       7       2       14      30      
3       0       0       0       7       0       2       23      26      
4       0       0       0       7       0       1       20      
7       2       3       4       4       7       1       25      
8       2       0       0       8       0       1       24      
6       8       0       0       0       0       1       29      
5       7       0       0       0       2       1       28      
10      7       0       4       8       7       2       22      24      
3       0       1       0       5       6       1       29      
8       0       2       9       0       5       1       28      
9       8       9       0       0       10      1       31      
6       0       8       8       0       8       1       26      
8       3       0       2       3       5       1       27      
9       0       0       1       0       1       1       31      
10      0       0       0       6       5       1       30      
3       0       0       10      0       0       1       30      
6       0       6       0       6       0       1       32      
2       0       0       0       0       10      1       32      
7       0       10      8       0       0       1       32      
0       0       0       0       0       0       0       